;; translated from ./bv/nest-if.c.vmt
;; original benchmark available at: https://es-static.fbk.eu/people/griggio/ic3ia/index.html
;; author: Alberto Griggio <griggio@fbk.eu>
(set-logic HORN)
(declare-fun state (Bool Bool Bool Bool (_ BitVec 32) (_ BitVec 32) (_ BitVec 32) (_ BitVec 32)) Bool)
(assert (forall ((|.PC.0| Bool) (|.PC.0.next| Bool) (|.PC.1.next| Bool) (|.PC.2.next| Bool) (|.PC.3.next| Bool) (|k__3$main| (_ BitVec 32)) (|k__3$main.next| (_ BitVec 32)) (|__RET__$main.next| (_ BitVec 32)) (|__RET__$main| (_ BitVec 32)) (|i__1$main.next| (_ BitVec 32)) (|i__1$main| (_ BitVec 32)) (|n__5$main| (_ BitVec 32)) (|n__5$main.next| (_ BitVec 32)) (|__NONDET_INLINE_INIT__6__5$main#0| (_ BitVec 32)) (|.PC.3| Bool) (|.PC.2| Bool) (|.PC.1| Bool)) (=> (let ((.def_18 (not .PC.3)))
(let ((.def_15 (not .PC.2)))
(let ((.def_12 (not .PC.1)))
(let ((.def_10 (not .PC.0)))
(let ((.def_13 (and .def_10 .def_12)))
(let ((.def_16 (and .def_13 .def_15)))
(let ((.def_19 (and .def_16 .def_18)))
.def_19))))))) (state |.PC.0| |.PC.1| |.PC.2| |.PC.3| |__RET__$main| |i__1$main| |n__5$main| |k__3$main|))))
(assert (forall ((|.PC.0| Bool) (|.PC.0.next| Bool) (|.PC.1.next| Bool) (|.PC.2.next| Bool) (|.PC.3.next| Bool) (|k__3$main| (_ BitVec 32)) (|k__3$main.next| (_ BitVec 32)) (|__RET__$main.next| (_ BitVec 32)) (|__RET__$main| (_ BitVec 32)) (|i__1$main.next| (_ BitVec 32)) (|i__1$main| (_ BitVec 32)) (|n__5$main| (_ BitVec 32)) (|n__5$main.next| (_ BitVec 32)) (|__NONDET_INLINE_INIT__6__5$main#0| (_ BitVec 32)) (|.PC.3| Bool) (|.PC.2| Bool) (|.PC.1| Bool)) (=> (and (state |.PC.0| |.PC.1| |.PC.2| |.PC.3| |__RET__$main| |i__1$main| |n__5$main| |k__3$main|) (let ((.def_75 (and .PC.0 .PC.1)))
(let ((.def_125 (and .PC.2 .def_75)))
(let ((.def_18 (not .PC.3)))
(let ((.def_126 (and .def_18 .def_125)))
(let ((.def_60 (and .PC.1.next .PC.0.next)))
(let ((.def_110 (and .PC.2.next .def_60)))
(let ((.def_43 (not .PC.3.next)))
(let ((.def_111 (and .def_43 .def_110)))
(let ((.def_127 (and .def_111 .def_126)))
(let ((.def_117 (bvadd (_ bv1 32) k__3$main)))
(let ((.def_118 (= k__3$main.next .def_117)))
(let ((.def_29 (= __RET__$main __RET__$main.next)))
(let ((.def_119 (and .def_29 .def_118)))
(let ((.def_33 (= i__1$main i__1$main.next)))
(let ((.def_120 (and .def_33 .def_119)))
(let ((.def_58 (= n__5$main.next n__5$main)))
(let ((.def_121 (and .def_58 .def_120)))
(let ((.def_38 (not .PC.1.next)))
(let ((.def_40 (and .def_38 .PC.0.next)))
(let ((.def_36 (not .PC.2.next)))
(let ((.def_41 (and .def_36 .def_40)))
(let ((.def_44 (and .def_41 .def_43)))
(let ((.def_122 (and .def_44 .def_121)))
(let ((.def_12 (not .PC.1)))
(let ((.def_47 (and .PC.0 .def_12)))
(let ((.def_115 (and .PC.2 .def_47)))
(let ((.def_116 (and .def_18 .def_115)))
(let ((.def_123 (and .def_116 .def_122)))
(let ((.def_107 (and .def_29 .def_33)))
(let ((.def_56 (= k__3$main.next k__3$main)))
(let ((.def_108 (and .def_56 .def_107)))
(let ((.def_109 (and .def_58 .def_108)))
(let ((.def_112 (and .def_109 .def_111)))
(let ((.def_10 (not .PC.0)))
(let ((.def_104 (and .def_10 .PC.1)))
(let ((.def_105 (and .PC.2 .def_104)))
(let ((.def_106 (and .def_18 .def_105)))
(let ((.def_113 (and .def_106 .def_112)))
(let ((.def_95 (bvadd (_ bv1 32) i__1$main)))
(let ((.def_96 (= i__1$main.next .def_95)))
(let ((.def_80 (bvslt k__3$main (_ bv1 32))))
(let ((.def_93 (not .def_80)))
(let ((.def_66 (bvslt i__1$main n__5$main)))
(let ((.def_94 (and .def_66 .def_93)))
(let ((.def_97 (and .def_94 .def_96)))
(let ((.def_98 (and .def_29 .def_97)))
(let ((.def_99 (and .def_56 .def_98)))
(let ((.def_100 (and .def_58 .def_99)))
(let ((.def_61 (and .def_36 .def_60)))
(let ((.def_62 (and .def_43 .def_61)))
(let ((.def_101 (and .def_62 .def_100)))
(let ((.def_15 (not .PC.2)))
(let ((.def_76 (and .def_15 .def_75)))
(let ((.def_77 (and .def_18 .def_76)))
(let ((.def_102 (and .def_77 .def_101)))
(let ((.def_86 (not .PC.0.next)))
(let ((.def_87 (and .PC.1.next .def_86)))
(let ((.def_88 (and .PC.2.next .def_87)))
(let ((.def_89 (and .def_43 .def_88)))
(let ((.def_81 (and .def_66 .def_80)))
(let ((.def_82 (and .def_29 .def_81)))
(let ((.def_83 (and .def_33 .def_82)))
(let ((.def_84 (and .def_56 .def_83)))
(let ((.def_85 (and .def_58 .def_84)))
(let ((.def_90 (and .def_85 .def_89)))
(let ((.def_91 (and .def_77 .def_90)))
(let ((.def_72 (and .PC.2.next .def_40)))
(let ((.def_73 (and .def_43 .def_72)))
(let ((.def_67 (not .def_66)))
(let ((.def_68 (and .def_29 .def_67)))
(let ((.def_69 (and .def_33 .def_68)))
(let ((.def_70 (and .def_56 .def_69)))
(let ((.def_71 (and .def_58 .def_70)))
(let ((.def_74 (and .def_71 .def_73)))
(let ((.def_78 (and .def_74 .def_77)))
(let ((.def_53 (= i__1$main.next (_ bv1 32))))
(let ((.def_52 (bvslt k__3$main n__5$main)))
(let ((.def_54 (and .def_52 .def_53)))
(let ((.def_55 (and .def_29 .def_54)))
(let ((.def_57 (and .def_55 .def_56)))
(let ((.def_59 (and .def_57 .def_58)))
(let ((.def_63 (and .def_59 .def_62)))
(let ((.def_48 (and .def_15 .def_47)))
(let ((.def_49 (and .def_18 .def_48)))
(let ((.def_64 (and .def_49 .def_63)))
(let ((.def_25 (= k__3$main.next (_ bv1 32))))
(let ((.def_22 (= n__5$main.next |__NONDET_INLINE_INIT__6__5$main#0|)))
(let ((.def_26 (and .def_22 .def_25)))
(let ((.def_30 (and .def_26 .def_29)))
(let ((.def_34 (and .def_30 .def_33)))
(let ((.def_45 (and .def_34 .def_44)))
(let ((.def_13 (and .def_10 .def_12)))
(let ((.def_16 (and .def_13 .def_15)))
(let ((.def_19 (and .def_16 .def_18)))
(let ((.def_46 (and .def_19 .def_45)))
(let ((.def_65 (or .def_46 .def_64)))
(let ((.def_79 (or .def_65 .def_78)))
(let ((.def_92 (or .def_79 .def_91)))
(let ((.def_103 (or .def_92 .def_102)))
(let ((.def_114 (or .def_103 .def_113)))
(let ((.def_124 (or .def_114 .def_123)))
(let ((.def_128 (or .def_124 .def_127)))
.def_128))))))))))))))))))))))))))))))))))))))))))))))))))))))))))))))))))))))))))))))))))))))))))))))))))))))) (state |.PC.0.next| |.PC.1.next| |.PC.2.next| |.PC.3.next| |__RET__$main.next| |i__1$main.next| |n__5$main.next| |k__3$main.next|))))
(assert (forall ((|.PC.0| Bool) (|.PC.0.next| Bool) (|.PC.1.next| Bool) (|.PC.2.next| Bool) (|.PC.3.next| Bool) (|k__3$main| (_ BitVec 32)) (|k__3$main.next| (_ BitVec 32)) (|__RET__$main.next| (_ BitVec 32)) (|__RET__$main| (_ BitVec 32)) (|i__1$main.next| (_ BitVec 32)) (|i__1$main| (_ BitVec 32)) (|n__5$main| (_ BitVec 32)) (|n__5$main.next| (_ BitVec 32)) (|__NONDET_INLINE_INIT__6__5$main#0| (_ BitVec 32)) (|.PC.3| Bool) (|.PC.2| Bool) (|.PC.1| Bool)) (=> (state |.PC.0| |.PC.1| |.PC.2| |.PC.3| |__RET__$main| |i__1$main| |n__5$main| |k__3$main|) (let ((.def_75 (and .PC.0 .PC.1)))
(let ((.def_125 (and .PC.2 .def_75)))
(let ((.def_18 (not .PC.3)))
(let ((.def_126 (and .def_18 .def_125)))
(let ((.def_129 (not .def_126)))
.def_129))))))))
(check-sat)
